\* battery *\
Maximize
OBJ: - 73.45 current_buy_qh_2022_01_01_00:00:00_01:00
 - 80.59 current_buy_qh_2022_01_01_01:00:00_01:00
 - 78.14 current_buy_qh_2022_01_01_02:00:00_01:00
 - 64.63 current_buy_qh_2022_01_01_03:00:00_01:00
 - 58.38 current_buy_qh_2022_01_01_04:00:00_01:00
 - 52.88 current_buy_qh_2022_01_01_05:00:00_01:00
 - 44.77 current_buy_qh_2022_01_01_06:00:00_01:00
 - 58.59 current_buy_qh_2022_01_01_07:00:00_01:00
 - 64.07 current_buy_qh_2022_01_01_08:00:00_01:00
 - 54.44 current_buy_qh_2022_01_01_09:00:00_01:00
 - 82.8 current_buy_qh_2022_01_01_10:00:00_01:00
 - 44.88 current_buy_qh_2022_01_01_11:00:00_01:00
 - 36.05 current_buy_qh_2022_01_01_12:00:00_01:00
 - 45.08 current_buy_qh_2022_01_01_13:00:00_01:00
 - 81.61 current_buy_qh_2022_01_01_14:00:00_01:00
 - 71.09 current_buy_qh_2022_01_01_15:00:00_01:00
 + 73.43 current_sell_qh_2022_01_01_00:00:00_01:00
 + 80.57 current_sell_qh_2022_01_01_01:00:00_01:00
 + 78.12 current_sell_qh_2022_01_01_02:00:00_01:00
 + 64.61 current_sell_qh_2022_01_01_03:00:00_01:00
 + 58.36 current_sell_qh_2022_01_01_04:00:00_01:00
 + 52.86 current_sell_qh_2022_01_01_05:00:00_01:00
 + 44.75 current_sell_qh_2022_01_01_06:00:00_01:00
 + 58.57 current_sell_qh_2022_01_01_07:00:00_01:00
 + 64.05 current_sell_qh_2022_01_01_08:00:00_01:00
 + 54.42 current_sell_qh_2022_01_01_09:00:00_01:00
 + 82.78 current_sell_qh_2022_01_01_10:00:00_01:00
 + 44.86 current_sell_qh_2022_01_01_11:00:00_01:00
 + 36.03 current_sell_qh_2022_01_01_12:00:00_01:00
 + 45.06 current_sell_qh_2022_01_01_13:00:00_01:00
 + 81.59 current_sell_qh_2022_01_01_14:00:00_01:00
 + 71.07 current_sell_qh_2022_01_01_15:00:00_01:00
Subject To
BatteryBalance_2022_01_01_01:00:00_01:00:
 - battery_soc_2022_01_01_00:00:00_01:00
 + battery_soc_2022_01_01_01:00:00_01:00
 - 0.92736184955 net_buy_2022_01_01_00:00:00_01:00
 + 1.07832773203 net_sell_2022_01_01_00:00:00_01:00 = 0
BatteryBalance_2022_01_01_02:00:00_01:00:
 - battery_soc_2022_01_01_01:00:00_01:00
 + battery_soc_2022_01_01_02:00:00_01:00
 - 0.92736184955 net_buy_2022_01_01_01:00:00_01:00
 + 1.07832773203 net_sell_2022_01_01_01:00:00_01:00 = 0
BatteryBalance_2022_01_01_03:00:00_01:00:
 - battery_soc_2022_01_01_02:00:00_01:00
 + battery_soc_2022_01_01_03:00:00_01:00
 - 0.92736184955 net_buy_2022_01_01_02:00:00_01:00
 + 1.07832773203 net_sell_2022_01_01_02:00:00_01:00 = 0
BatteryBalance_2022_01_01_04:00:00_01:00:
 - battery_soc_2022_01_01_03:00:00_01:00
 + battery_soc_2022_01_01_04:00:00_01:00
 - 0.92736184955 net_buy_2022_01_01_03:00:00_01:00
 + 1.07832773203 net_sell_2022_01_01_03:00:00_01:00 = 0
BatteryBalance_2022_01_01_05:00:00_01:00:
 - battery_soc_2022_01_01_04:00:00_01:00
 + battery_soc_2022_01_01_05:00:00_01:00
 - 0.92736184955 net_buy_2022_01_01_04:00:00_01:00
 + 1.07832773203 net_sell_2022_01_01_04:00:00_01:00 = 0
BatteryBalance_2022_01_01_06:00:00_01:00:
 - battery_soc_2022_01_01_05:00:00_01:00
 + battery_soc_2022_01_01_06:00:00_01:00
 - 0.92736184955 net_buy_2022_01_01_05:00:00_01:00
 + 1.07832773203 net_sell_2022_01_01_05:00:00_01:00 = 0
BatteryBalance_2022_01_01_07:00:00_01:00:
 - battery_soc_2022_01_01_06:00:00_01:00
 + battery_soc_2022_01_01_07:00:00_01:00
 - 0.92736184955 net_buy_2022_01_01_06:00:00_01:00
 + 1.07832773203 net_sell_2022_01_01_06:00:00_01:00 = 0
BatteryBalance_2022_01_01_08:00:00_01:00:
 - battery_soc_2022_01_01_07:00:00_01:00
 + battery_soc_2022_01_01_08:00:00_01:00
 - 0.92736184955 net_buy_2022_01_01_07:00:00_01:00
 + 1.07832773203 net_sell_2022_01_01_07:00:00_01:00 = 0
BatteryBalance_2022_01_01_09:00:00_01:00:
 - battery_soc_2022_01_01_08:00:00_01:00
 + battery_soc_2022_01_01_09:00:00_01:00
 - 0.92736184955 net_buy_2022_01_01_08:00:00_01:00
 + 1.07832773203 net_sell_2022_01_01_08:00:00_01:00 = 0
BatteryBalance_2022_01_01_10:00:00_01:00:
 - battery_soc_2022_01_01_09:00:00_01:00
 + battery_soc_2022_01_01_10:00:00_01:00
 - 0.92736184955 net_buy_2022_01_01_09:00:00_01:00
 + 1.07832773203 net_sell_2022_01_01_09:00:00_01:00 = 0
BatteryBalance_2022_01_01_11:00:00_01:00:
 - battery_soc_2022_01_01_10:00:00_01:00
 + battery_soc_2022_01_01_11:00:00_01:00
 - 0.92736184955 net_buy_2022_01_01_10:00:00_01:00
 + 1.07832773203 net_sell_2022_01_01_10:00:00_01:00 = 0
BatteryBalance_2022_01_01_12:00:00_01:00:
 - battery_soc_2022_01_01_11:00:00_01:00
 + battery_soc_2022_01_01_12:00:00_01:00
 - 0.92736184955 net_buy_2022_01_01_11:00:00_01:00
 + 1.07832773203 net_sell_2022_01_01_11:00:00_01:00 = 0
BatteryBalance_2022_01_01_13:00:00_01:00:
 - battery_soc_2022_01_01_12:00:00_01:00
 + battery_soc_2022_01_01_13:00:00_01:00
 - 0.92736184955 net_buy_2022_01_01_12:00:00_01:00
 + 1.07832773203 net_sell_2022_01_01_12:00:00_01:00 = 0
BatteryBalance_2022_01_01_14:00:00_01:00:
 - battery_soc_2022_01_01_13:00:00_01:00
 + battery_soc_2022_01_01_14:00:00_01:00
 - 0.92736184955 net_buy_2022_01_01_13:00:00_01:00
 + 1.07832773203 net_sell_2022_01_01_13:00:00_01:00 = 0
BatteryBalance_2022_01_01_15:00:00_01:00:
 - battery_soc_2022_01_01_14:00:00_01:00
 + battery_soc_2022_01_01_15:00:00_01:00
 - 0.92736184955 net_buy_2022_01_01_14:00:00_01:00
 + 1.07832773203 net_sell_2022_01_01_14:00:00_01:00 = 0
BatteryBalance_2022_01_01_16:00:00_01:00:
 - battery_soc_2022_01_01_15:00:00_01:00
 + battery_soc_2022_01_01_16:00:00_01:00
 - 0.92736184955 net_buy_2022_01_01_15:00:00_01:00
 + 1.07832773203 net_sell_2022_01_01_15:00:00_01:00 = 0
BatteryBalance_2022_01_01_17:00:00_01:00:
 - battery_soc_2022_01_01_16:00:00_01:00
 + battery_soc_2022_01_01_17:00:00_01:00
 - 0.92736184955 net_buy_2022_01_01_16:00:00_01:00
 + 1.07832773203 net_sell_2022_01_01_16:00:00_01:00 = 0
BatteryBalance_2022_01_01_18:00:00_01:00:
 - battery_soc_2022_01_01_17:00:00_01:00
 + battery_soc_2022_01_01_18:00:00_01:00
 - 0.92736184955 net_buy_2022_01_01_17:00:00_01:00
 + 1.07832773203 net_sell_2022_01_01_17:00:00_01:00 = 0
BatteryBalance_2022_01_01_19:00:00_01:00:
 - battery_soc_2022_01_01_18:00:00_01:00
 + battery_soc_2022_01_01_19:00:00_01:00
 - 0.92736184955 net_buy_2022_01_01_18:00:00_01:00
 + 1.07832773203 net_sell_2022_01_01_18:00:00_01:00 = 0
BatteryBalance_2022_01_01_20:00:00_01:00:
 - battery_soc_2022_01_01_19:00:00_01:00
 + battery_soc_2022_01_01_20:00:00_01:00
 - 0.92736184955 net_buy_2022_01_01_19:00:00_01:00
 + 1.07832773203 net_sell_2022_01_01_19:00:00_01:00 = 0
BatteryBalance_2022_01_01_21:00:00_01:00:
 - battery_soc_2022_01_01_20:00:00_01:00
 + battery_soc_2022_01_01_21:00:00_01:00
 - 0.92736184955 net_buy_2022_01_01_20:00:00_01:00
 + 1.07832773203 net_sell_2022_01_01_20:00:00_01:00 = 0
BatteryBalance_2022_01_01_22:00:00_01:00:
 - battery_soc_2022_01_01_21:00:00_01:00
 + battery_soc_2022_01_01_22:00:00_01:00
 - 0.92736184955 net_buy_2022_01_01_21:00:00_01:00
 + 1.07832773203 net_sell_2022_01_01_21:00:00_01:00 = 0
BatteryBalance_2022_01_01_23:00:00_01:00:
 - battery_soc_2022_01_01_22:00:00_01:00
 + battery_soc_2022_01_01_23:00:00_01:00
 - 0.92736184955 net_buy_2022_01_01_22:00:00_01:00
 + 1.07832773203 net_sell_2022_01_01_22:00:00_01:00 = 0
BuyRate_2022_01_01_00:00:00_01:00: net_buy_2022_01_01_00:00:00_01:00 <= 0.5
BuyRate_2022_01_01_01:00:00_01:00: net_buy_2022_01_01_01:00:00_01:00 <= 0.5
BuyRate_2022_01_01_02:00:00_01:00: net_buy_2022_01_01_02:00:00_01:00 <= 0.5
BuyRate_2022_01_01_03:00:00_01:00: net_buy_2022_01_01_03:00:00_01:00 <= 0.5
BuyRate_2022_01_01_04:00:00_01:00: net_buy_2022_01_01_04:00:00_01:00 <= 0.5
BuyRate_2022_01_01_05:00:00_01:00: net_buy_2022_01_01_05:00:00_01:00 <= 0.5
BuyRate_2022_01_01_06:00:00_01:00: net_buy_2022_01_01_06:00:00_01:00 <= 0.5
BuyRate_2022_01_01_07:00:00_01:00: net_buy_2022_01_01_07:00:00_01:00 <= 0.5
BuyRate_2022_01_01_08:00:00_01:00: net_buy_2022_01_01_08:00:00_01:00 <= 0.5
BuyRate_2022_01_01_09:00:00_01:00: net_buy_2022_01_01_09:00:00_01:00 <= 0.5
BuyRate_2022_01_01_10:00:00_01:00: net_buy_2022_01_01_10:00:00_01:00 <= 0.5
BuyRate_2022_01_01_11:00:00_01:00: net_buy_2022_01_01_11:00:00_01:00 <= 0.5
BuyRate_2022_01_01_12:00:00_01:00: net_buy_2022_01_01_12:00:00_01:00 <= 0.5
BuyRate_2022_01_01_13:00:00_01:00: net_buy_2022_01_01_13:00:00_01:00 <= 0.5
BuyRate_2022_01_01_14:00:00_01:00: net_buy_2022_01_01_14:00:00_01:00 <= 0.5
BuyRate_2022_01_01_15:00:00_01:00: net_buy_2022_01_01_15:00:00_01:00 <= 0.5
Cap_2022_01_01_00:00:00_01:00: battery_soc_2022_01_01_00:00:00_01:00 <= 1
Cap_2022_01_01_01:00:00_01:00: battery_soc_2022_01_01_01:00:00_01:00 <= 1
Cap_2022_01_01_02:00:00_01:00: battery_soc_2022_01_01_02:00:00_01:00 <= 1
Cap_2022_01_01_03:00:00_01:00: battery_soc_2022_01_01_03:00:00_01:00 <= 1
Cap_2022_01_01_04:00:00_01:00: battery_soc_2022_01_01_04:00:00_01:00 <= 1
Cap_2022_01_01_05:00:00_01:00: battery_soc_2022_01_01_05:00:00_01:00 <= 1
Cap_2022_01_01_06:00:00_01:00: battery_soc_2022_01_01_06:00:00_01:00 <= 1
Cap_2022_01_01_07:00:00_01:00: battery_soc_2022_01_01_07:00:00_01:00 <= 1
Cap_2022_01_01_08:00:00_01:00: battery_soc_2022_01_01_08:00:00_01:00 <= 1
Cap_2022_01_01_09:00:00_01:00: battery_soc_2022_01_01_09:00:00_01:00 <= 1
Cap_2022_01_01_10:00:00_01:00: battery_soc_2022_01_01_10:00:00_01:00 <= 1
Cap_2022_01_01_11:00:00_01:00: battery_soc_2022_01_01_11:00:00_01:00 <= 1
Cap_2022_01_01_12:00:00_01:00: battery_soc_2022_01_01_12:00:00_01:00 <= 1
Cap_2022_01_01_13:00:00_01:00: battery_soc_2022_01_01_13:00:00_01:00 <= 1
Cap_2022_01_01_14:00:00_01:00: battery_soc_2022_01_01_14:00:00_01:00 <= 1
Cap_2022_01_01_15:00:00_01:00: battery_soc_2022_01_01_15:00:00_01:00 <= 1
InitialBatterySOC: battery_soc_2022_01_01_00:00:00_01:00 = 0
MaxCycles: 0.92736184955 net_buy_2022_01_01_00:00:00_01:00
 + 0.92736184955 net_buy_2022_01_01_01:00:00_01:00
 + 0.92736184955 net_buy_2022_01_01_02:00:00_01:00
 + 0.92736184955 net_buy_2022_01_01_03:00:00_01:00
 + 0.92736184955 net_buy_2022_01_01_04:00:00_01:00
 + 0.92736184955 net_buy_2022_01_01_05:00:00_01:00
 + 0.92736184955 net_buy_2022_01_01_06:00:00_01:00
 + 0.92736184955 net_buy_2022_01_01_07:00:00_01:00
 + 0.92736184955 net_buy_2022_01_01_08:00:00_01:00
 + 0.92736184955 net_buy_2022_01_01_09:00:00_01:00
 + 0.92736184955 net_buy_2022_01_01_10:00:00_01:00
 + 0.92736184955 net_buy_2022_01_01_11:00:00_01:00
 + 0.92736184955 net_buy_2022_01_01_12:00:00_01:00
 + 0.92736184955 net_buy_2022_01_01_13:00:00_01:00
 + 0.92736184955 net_buy_2022_01_01_14:00:00_01:00
 + 0.92736184955 net_buy_2022_01_01_15:00:00_01:00
 + 0.92736184955 net_buy_2022_01_01_16:00:00_01:00
 + 0.92736184955 net_buy_2022_01_01_17:00:00_01:00
 + 0.92736184955 net_buy_2022_01_01_18:00:00_01:00
 + 0.92736184955 net_buy_2022_01_01_19:00:00_01:00
 + 0.92736184955 net_buy_2022_01_01_20:00:00_01:00
 + 0.92736184955 net_buy_2022_01_01_21:00:00_01:00
 + 0.92736184955 net_buy_2022_01_01_22:00:00_01:00
 + 0.92736184955 net_buy_2022_01_01_23:00:00_01:00 <= 1
NaNBuy_2022_01_01_16:00:00_01:00: current_buy_qh_2022_01_01_16:00:00_01:00 = 0
NaNBuy_2022_01_01_17:00:00_01:00: current_buy_qh_2022_01_01_17:00:00_01:00 = 0
NaNBuy_2022_01_01_18:00:00_01:00: current_buy_qh_2022_01_01_18:00:00_01:00 = 0
NaNBuy_2022_01_01_19:00:00_01:00: current_buy_qh_2022_01_01_19:00:00_01:00 = 0
NaNBuy_2022_01_01_20:00:00_01:00: current_buy_qh_2022_01_01_20:00:00_01:00 = 0
NaNBuy_2022_01_01_21:00:00_01:00: current_buy_qh_2022_01_01_21:00:00_01:00 = 0
NaNBuy_2022_01_01_22:00:00_01:00: current_buy_qh_2022_01_01_22:00:00_01:00 = 0
NaNBuy_2022_01_01_23:00:00_01:00: current_buy_qh_2022_01_01_23:00:00_01:00 = 0
NaNSell_2022_01_01_16:00:00_01:00: current_sell_qh_2022_01_01_16:00:00_01:00
 = 0
NaNSell_2022_01_01_17:00:00_01:00: current_sell_qh_2022_01_01_17:00:00_01:00
 = 0
NaNSell_2022_01_01_18:00:00_01:00: current_sell_qh_2022_01_01_18:00:00_01:00
 = 0
NaNSell_2022_01_01_19:00:00_01:00: current_sell_qh_2022_01_01_19:00:00_01:00
 = 0
NaNSell_2022_01_01_20:00:00_01:00: current_sell_qh_2022_01_01_20:00:00_01:00
 = 0
NaNSell_2022_01_01_21:00:00_01:00: current_sell_qh_2022_01_01_21:00:00_01:00
 = 0
NaNSell_2022_01_01_22:00:00_01:00: current_sell_qh_2022_01_01_22:00:00_01:00
 = 0
NaNSell_2022_01_01_23:00:00_01:00: current_sell_qh_2022_01_01_23:00:00_01:00
 = 0
NetBuyBigM_2022_01_01_00:00:00_01:00:
 - 100 charge_sign_2022_01_01_00:00:00_01:00
 + net_buy_2022_01_01_00:00:00_01:00 <= 0
NetBuyBigM_2022_01_01_01:00:00_01:00:
 - 100 charge_sign_2022_01_01_01:00:00_01:00
 + net_buy_2022_01_01_01:00:00_01:00 <= 0
NetBuyBigM_2022_01_01_02:00:00_01:00:
 - 100 charge_sign_2022_01_01_02:00:00_01:00
 + net_buy_2022_01_01_02:00:00_01:00 <= 0
NetBuyBigM_2022_01_01_03:00:00_01:00:
 - 100 charge_sign_2022_01_01_03:00:00_01:00
 + net_buy_2022_01_01_03:00:00_01:00 <= 0
NetBuyBigM_2022_01_01_04:00:00_01:00:
 - 100 charge_sign_2022_01_01_04:00:00_01:00
 + net_buy_2022_01_01_04:00:00_01:00 <= 0
NetBuyBigM_2022_01_01_05:00:00_01:00:
 - 100 charge_sign_2022_01_01_05:00:00_01:00
 + net_buy_2022_01_01_05:00:00_01:00 <= 0
NetBuyBigM_2022_01_01_06:00:00_01:00:
 - 100 charge_sign_2022_01_01_06:00:00_01:00
 + net_buy_2022_01_01_06:00:00_01:00 <= 0
NetBuyBigM_2022_01_01_07:00:00_01:00:
 - 100 charge_sign_2022_01_01_07:00:00_01:00
 + net_buy_2022_01_01_07:00:00_01:00 <= 0
NetBuyBigM_2022_01_01_08:00:00_01:00:
 - 100 charge_sign_2022_01_01_08:00:00_01:00
 + net_buy_2022_01_01_08:00:00_01:00 <= 0
NetBuyBigM_2022_01_01_09:00:00_01:00:
 - 100 charge_sign_2022_01_01_09:00:00_01:00
 + net_buy_2022_01_01_09:00:00_01:00 <= 0
NetBuyBigM_2022_01_01_10:00:00_01:00:
 - 100 charge_sign_2022_01_01_10:00:00_01:00
 + net_buy_2022_01_01_10:00:00_01:00 <= 0
NetBuyBigM_2022_01_01_11:00:00_01:00:
 - 100 charge_sign_2022_01_01_11:00:00_01:00
 + net_buy_2022_01_01_11:00:00_01:00 <= 0
NetBuyBigM_2022_01_01_12:00:00_01:00:
 - 100 charge_sign_2022_01_01_12:00:00_01:00
 + net_buy_2022_01_01_12:00:00_01:00 <= 0
NetBuyBigM_2022_01_01_13:00:00_01:00:
 - 100 charge_sign_2022_01_01_13:00:00_01:00
 + net_buy_2022_01_01_13:00:00_01:00 <= 0
NetBuyBigM_2022_01_01_14:00:00_01:00:
 - 100 charge_sign_2022_01_01_14:00:00_01:00
 + net_buy_2022_01_01_14:00:00_01:00 <= 0
NetBuyBigM_2022_01_01_15:00:00_01:00:
 - 100 charge_sign_2022_01_01_15:00:00_01:00
 + net_buy_2022_01_01_15:00:00_01:00 <= 0
NetBuyBigM_2022_01_01_16:00:00_01:00:
 - 100 charge_sign_2022_01_01_16:00:00_01:00
 + net_buy_2022_01_01_16:00:00_01:00 <= 0
NetBuyBigM_2022_01_01_17:00:00_01:00:
 - 100 charge_sign_2022_01_01_17:00:00_01:00
 + net_buy_2022_01_01_17:00:00_01:00 <= 0
NetBuyBigM_2022_01_01_18:00:00_01:00:
 - 100 charge_sign_2022_01_01_18:00:00_01:00
 + net_buy_2022_01_01_18:00:00_01:00 <= 0
NetBuyBigM_2022_01_01_19:00:00_01:00:
 - 100 charge_sign_2022_01_01_19:00:00_01:00
 + net_buy_2022_01_01_19:00:00_01:00 <= 0
NetBuyBigM_2022_01_01_20:00:00_01:00:
 - 100 charge_sign_2022_01_01_20:00:00_01:00
 + net_buy_2022_01_01_20:00:00_01:00 <= 0
NetBuyBigM_2022_01_01_21:00:00_01:00:
 - 100 charge_sign_2022_01_01_21:00:00_01:00
 + net_buy_2022_01_01_21:00:00_01:00 <= 0
NetBuyBigM_2022_01_01_22:00:00_01:00:
 - 100 charge_sign_2022_01_01_22:00:00_01:00
 + net_buy_2022_01_01_22:00:00_01:00 <= 0
NetBuyBigM_2022_01_01_23:00:00_01:00:
 - 100 charge_sign_2022_01_01_23:00:00_01:00
 + net_buy_2022_01_01_23:00:00_01:00 <= 0
NetSellBigM_2022_01_01_00:00:00_01:00:
 100 charge_sign_2022_01_01_00:00:00_01:00
 + net_sell_2022_01_01_00:00:00_01:00 <= 100
NetSellBigM_2022_01_01_01:00:00_01:00:
 100 charge_sign_2022_01_01_01:00:00_01:00
 + net_sell_2022_01_01_01:00:00_01:00 <= 100
NetSellBigM_2022_01_01_02:00:00_01:00:
 100 charge_sign_2022_01_01_02:00:00_01:00
 + net_sell_2022_01_01_02:00:00_01:00 <= 100
NetSellBigM_2022_01_01_03:00:00_01:00:
 100 charge_sign_2022_01_01_03:00:00_01:00
 + net_sell_2022_01_01_03:00:00_01:00 <= 100
NetSellBigM_2022_01_01_04:00:00_01:00:
 100 charge_sign_2022_01_01_04:00:00_01:00
 + net_sell_2022_01_01_04:00:00_01:00 <= 100
NetSellBigM_2022_01_01_05:00:00_01:00:
 100 charge_sign_2022_01_01_05:00:00_01:00
 + net_sell_2022_01_01_05:00:00_01:00 <= 100
NetSellBigM_2022_01_01_06:00:00_01:00:
 100 charge_sign_2022_01_01_06:00:00_01:00
 + net_sell_2022_01_01_06:00:00_01:00 <= 100
NetSellBigM_2022_01_01_07:00:00_01:00:
 100 charge_sign_2022_01_01_07:00:00_01:00
 + net_sell_2022_01_01_07:00:00_01:00 <= 100
NetSellBigM_2022_01_01_08:00:00_01:00:
 100 charge_sign_2022_01_01_08:00:00_01:00
 + net_sell_2022_01_01_08:00:00_01:00 <= 100
NetSellBigM_2022_01_01_09:00:00_01:00:
 100 charge_sign_2022_01_01_09:00:00_01:00
 + net_sell_2022_01_01_09:00:00_01:00 <= 100
NetSellBigM_2022_01_01_10:00:00_01:00:
 100 charge_sign_2022_01_01_10:00:00_01:00
 + net_sell_2022_01_01_10:00:00_01:00 <= 100
NetSellBigM_2022_01_01_11:00:00_01:00:
 100 charge_sign_2022_01_01_11:00:00_01:00
 + net_sell_2022_01_01_11:00:00_01:00 <= 100
NetSellBigM_2022_01_01_12:00:00_01:00:
 100 charge_sign_2022_01_01_12:00:00_01:00
 + net_sell_2022_01_01_12:00:00_01:00 <= 100
NetSellBigM_2022_01_01_13:00:00_01:00:
 100 charge_sign_2022_01_01_13:00:00_01:00
 + net_sell_2022_01_01_13:00:00_01:00 <= 100
NetSellBigM_2022_01_01_14:00:00_01:00:
 100 charge_sign_2022_01_01_14:00:00_01:00
 + net_sell_2022_01_01_14:00:00_01:00 <= 100
NetSellBigM_2022_01_01_15:00:00_01:00:
 100 charge_sign_2022_01_01_15:00:00_01:00
 + net_sell_2022_01_01_15:00:00_01:00 <= 100
NetSellBigM_2022_01_01_16:00:00_01:00:
 100 charge_sign_2022_01_01_16:00:00_01:00
 + net_sell_2022_01_01_16:00:00_01:00 <= 100
NetSellBigM_2022_01_01_17:00:00_01:00:
 100 charge_sign_2022_01_01_17:00:00_01:00
 + net_sell_2022_01_01_17:00:00_01:00 <= 100
NetSellBigM_2022_01_01_18:00:00_01:00:
 100 charge_sign_2022_01_01_18:00:00_01:00
 + net_sell_2022_01_01_18:00:00_01:00 <= 100
NetSellBigM_2022_01_01_19:00:00_01:00:
 100 charge_sign_2022_01_01_19:00:00_01:00
 + net_sell_2022_01_01_19:00:00_01:00 <= 100
NetSellBigM_2022_01_01_20:00:00_01:00:
 100 charge_sign_2022_01_01_20:00:00_01:00
 + net_sell_2022_01_01_20:00:00_01:00 <= 100
NetSellBigM_2022_01_01_21:00:00_01:00:
 100 charge_sign_2022_01_01_21:00:00_01:00
 + net_sell_2022_01_01_21:00:00_01:00 <= 100
NetSellBigM_2022_01_01_22:00:00_01:00:
 100 charge_sign_2022_01_01_22:00:00_01:00
 + net_sell_2022_01_01_22:00:00_01:00 <= 100
NetSellBigM_2022_01_01_23:00:00_01:00:
 100 charge_sign_2022_01_01_23:00:00_01:00
 + net_sell_2022_01_01_23:00:00_01:00 <= 100
Netting_2022_01_01_00:00:00_01:00: - current_buy_qh_2022_01_01_00:00:00_01:00
 + current_sell_qh_2022_01_01_00:00:00_01:00 - w_2022_01_01_00:00:00_01:00
 + z_2022_01_01_00:00:00_01:00 = 0
Netting_2022_01_01_01:00:00_01:00: - current_buy_qh_2022_01_01_01:00:00_01:00
 + current_sell_qh_2022_01_01_01:00:00_01:00 - w_2022_01_01_01:00:00_01:00
 + z_2022_01_01_01:00:00_01:00 = 0
Netting_2022_01_01_02:00:00_01:00: - current_buy_qh_2022_01_01_02:00:00_01:00
 + current_sell_qh_2022_01_01_02:00:00_01:00 - w_2022_01_01_02:00:00_01:00
 + z_2022_01_01_02:00:00_01:00 = 0
Netting_2022_01_01_03:00:00_01:00: - current_buy_qh_2022_01_01_03:00:00_01:00
 + current_sell_qh_2022_01_01_03:00:00_01:00 - w_2022_01_01_03:00:00_01:00
 + z_2022_01_01_03:00:00_01:00 = 0
Netting_2022_01_01_04:00:00_01:00: - current_buy_qh_2022_01_01_04:00:00_01:00
 + current_sell_qh_2022_01_01_04:00:00_01:00 - w_2022_01_01_04:00:00_01:00
 + z_2022_01_01_04:00:00_01:00 = 0
Netting_2022_01_01_05:00:00_01:00: - current_buy_qh_2022_01_01_05:00:00_01:00
 + current_sell_qh_2022_01_01_05:00:00_01:00 - w_2022_01_01_05:00:00_01:00
 + z_2022_01_01_05:00:00_01:00 = 0
Netting_2022_01_01_06:00:00_01:00: - current_buy_qh_2022_01_01_06:00:00_01:00
 + current_sell_qh_2022_01_01_06:00:00_01:00 - w_2022_01_01_06:00:00_01:00
 + z_2022_01_01_06:00:00_01:00 = 0
Netting_2022_01_01_07:00:00_01:00: - current_buy_qh_2022_01_01_07:00:00_01:00
 + current_sell_qh_2022_01_01_07:00:00_01:00 - w_2022_01_01_07:00:00_01:00
 + z_2022_01_01_07:00:00_01:00 = 0
Netting_2022_01_01_08:00:00_01:00: - current_buy_qh_2022_01_01_08:00:00_01:00
 + current_sell_qh_2022_01_01_08:00:00_01:00 - w_2022_01_01_08:00:00_01:00
 + z_2022_01_01_08:00:00_01:00 = 0
Netting_2022_01_01_09:00:00_01:00: - current_buy_qh_2022_01_01_09:00:00_01:00
 + current_sell_qh_2022_01_01_09:00:00_01:00 - w_2022_01_01_09:00:00_01:00
 + z_2022_01_01_09:00:00_01:00 = 0
Netting_2022_01_01_10:00:00_01:00: - current_buy_qh_2022_01_01_10:00:00_01:00
 + current_sell_qh_2022_01_01_10:00:00_01:00 - w_2022_01_01_10:00:00_01:00
 + z_2022_01_01_10:00:00_01:00 = 0
Netting_2022_01_01_11:00:00_01:00: - current_buy_qh_2022_01_01_11:00:00_01:00
 + current_sell_qh_2022_01_01_11:00:00_01:00 - w_2022_01_01_11:00:00_01:00
 + z_2022_01_01_11:00:00_01:00 = 0
Netting_2022_01_01_12:00:00_01:00: - current_buy_qh_2022_01_01_12:00:00_01:00
 + current_sell_qh_2022_01_01_12:00:00_01:00 - w_2022_01_01_12:00:00_01:00
 + z_2022_01_01_12:00:00_01:00 = 0
Netting_2022_01_01_13:00:00_01:00: - current_buy_qh_2022_01_01_13:00:00_01:00
 + current_sell_qh_2022_01_01_13:00:00_01:00 - w_2022_01_01_13:00:00_01:00
 + z_2022_01_01_13:00:00_01:00 = 0
Netting_2022_01_01_14:00:00_01:00: - current_buy_qh_2022_01_01_14:00:00_01:00
 + current_sell_qh_2022_01_01_14:00:00_01:00 - w_2022_01_01_14:00:00_01:00
 + z_2022_01_01_14:00:00_01:00 = 0
Netting_2022_01_01_15:00:00_01:00: - current_buy_qh_2022_01_01_15:00:00_01:00
 + current_sell_qh_2022_01_01_15:00:00_01:00 - w_2022_01_01_15:00:00_01:00
 + z_2022_01_01_15:00:00_01:00 = 0
Netting_2022_01_01_16:00:00_01:00: - current_buy_qh_2022_01_01_16:00:00_01:00
 + current_sell_qh_2022_01_01_16:00:00_01:00 - w_2022_01_01_16:00:00_01:00
 + z_2022_01_01_16:00:00_01:00 = 0
Netting_2022_01_01_17:00:00_01:00: - current_buy_qh_2022_01_01_17:00:00_01:00
 + current_sell_qh_2022_01_01_17:00:00_01:00 - w_2022_01_01_17:00:00_01:00
 + z_2022_01_01_17:00:00_01:00 = 0
Netting_2022_01_01_18:00:00_01:00: - current_buy_qh_2022_01_01_18:00:00_01:00
 + current_sell_qh_2022_01_01_18:00:00_01:00 - w_2022_01_01_18:00:00_01:00
 + z_2022_01_01_18:00:00_01:00 = 0
Netting_2022_01_01_19:00:00_01:00: - current_buy_qh_2022_01_01_19:00:00_01:00
 + current_sell_qh_2022_01_01_19:00:00_01:00 - w_2022_01_01_19:00:00_01:00
 + z_2022_01_01_19:00:00_01:00 = 0
Netting_2022_01_01_20:00:00_01:00: - current_buy_qh_2022_01_01_20:00:00_01:00
 + current_sell_qh_2022_01_01_20:00:00_01:00 - w_2022_01_01_20:00:00_01:00
 + z_2022_01_01_20:00:00_01:00 = 0
Netting_2022_01_01_21:00:00_01:00: - current_buy_qh_2022_01_01_21:00:00_01:00
 + current_sell_qh_2022_01_01_21:00:00_01:00 - w_2022_01_01_21:00:00_01:00
 + z_2022_01_01_21:00:00_01:00 = 0
Netting_2022_01_01_22:00:00_01:00: - current_buy_qh_2022_01_01_22:00:00_01:00
 + current_sell_qh_2022_01_01_22:00:00_01:00 - w_2022_01_01_22:00:00_01:00
 + z_2022_01_01_22:00:00_01:00 = 0
Netting_2022_01_01_23:00:00_01:00: - current_buy_qh_2022_01_01_23:00:00_01:00
 + current_sell_qh_2022_01_01_23:00:00_01:00 - w_2022_01_01_23:00:00_01:00
 + z_2022_01_01_23:00:00_01:00 = 0
SellRate_2022_01_01_00:00:00_01:00: net_sell_2022_01_01_00:00:00_01:00 <= 0.5
SellRate_2022_01_01_01:00:00_01:00: net_sell_2022_01_01_01:00:00_01:00 <= 0.5
SellRate_2022_01_01_02:00:00_01:00: net_sell_2022_01_01_02:00:00_01:00 <= 0.5
SellRate_2022_01_01_03:00:00_01:00: net_sell_2022_01_01_03:00:00_01:00 <= 0.5
SellRate_2022_01_01_04:00:00_01:00: net_sell_2022_01_01_04:00:00_01:00 <= 0.5
SellRate_2022_01_01_05:00:00_01:00: net_sell_2022_01_01_05:00:00_01:00 <= 0.5
SellRate_2022_01_01_06:00:00_01:00: net_sell_2022_01_01_06:00:00_01:00 <= 0.5
SellRate_2022_01_01_07:00:00_01:00: net_sell_2022_01_01_07:00:00_01:00 <= 0.5
SellRate_2022_01_01_08:00:00_01:00: net_sell_2022_01_01_08:00:00_01:00 <= 0.5
SellRate_2022_01_01_09:00:00_01:00: net_sell_2022_01_01_09:00:00_01:00 <= 0.5
SellRate_2022_01_01_10:00:00_01:00: net_sell_2022_01_01_10:00:00_01:00 <= 0.5
SellRate_2022_01_01_11:00:00_01:00: net_sell_2022_01_01_11:00:00_01:00 <= 0.5
SellRate_2022_01_01_12:00:00_01:00: net_sell_2022_01_01_12:00:00_01:00 <= 0.5
SellRate_2022_01_01_13:00:00_01:00: net_sell_2022_01_01_13:00:00_01:00 <= 0.5
SellRate_2022_01_01_14:00:00_01:00: net_sell_2022_01_01_14:00:00_01:00 <= 0.5
SellRate_2022_01_01_15:00:00_01:00: net_sell_2022_01_01_15:00:00_01:00 <= 0.5
SellVsSOC_2022_01_01_00:00:00_01:00: - battery_soc_2022_01_01_00:00:00_01:00
 + 1.07832773203 net_sell_2022_01_01_00:00:00_01:00 <= 0
SellVsSOC_2022_01_01_01:00:00_01:00: - battery_soc_2022_01_01_01:00:00_01:00
 + 1.07832773203 net_sell_2022_01_01_01:00:00_01:00 <= 0
SellVsSOC_2022_01_01_02:00:00_01:00: - battery_soc_2022_01_01_02:00:00_01:00
 + 1.07832773203 net_sell_2022_01_01_02:00:00_01:00 <= 0
SellVsSOC_2022_01_01_03:00:00_01:00: - battery_soc_2022_01_01_03:00:00_01:00
 + 1.07832773203 net_sell_2022_01_01_03:00:00_01:00 <= 0
SellVsSOC_2022_01_01_04:00:00_01:00: - battery_soc_2022_01_01_04:00:00_01:00
 + 1.07832773203 net_sell_2022_01_01_04:00:00_01:00 <= 0
SellVsSOC_2022_01_01_05:00:00_01:00: - battery_soc_2022_01_01_05:00:00_01:00
 + 1.07832773203 net_sell_2022_01_01_05:00:00_01:00 <= 0
SellVsSOC_2022_01_01_06:00:00_01:00: - battery_soc_2022_01_01_06:00:00_01:00
 + 1.07832773203 net_sell_2022_01_01_06:00:00_01:00 <= 0
SellVsSOC_2022_01_01_07:00:00_01:00: - battery_soc_2022_01_01_07:00:00_01:00
 + 1.07832773203 net_sell_2022_01_01_07:00:00_01:00 <= 0
SellVsSOC_2022_01_01_08:00:00_01:00: - battery_soc_2022_01_01_08:00:00_01:00
 + 1.07832773203 net_sell_2022_01_01_08:00:00_01:00 <= 0
SellVsSOC_2022_01_01_09:00:00_01:00: - battery_soc_2022_01_01_09:00:00_01:00
 + 1.07832773203 net_sell_2022_01_01_09:00:00_01:00 <= 0
SellVsSOC_2022_01_01_10:00:00_01:00: - battery_soc_2022_01_01_10:00:00_01:00
 + 1.07832773203 net_sell_2022_01_01_10:00:00_01:00 <= 0
SellVsSOC_2022_01_01_11:00:00_01:00: - battery_soc_2022_01_01_11:00:00_01:00
 + 1.07832773203 net_sell_2022_01_01_11:00:00_01:00 <= 0
SellVsSOC_2022_01_01_12:00:00_01:00: - battery_soc_2022_01_01_12:00:00_01:00
 + 1.07832773203 net_sell_2022_01_01_12:00:00_01:00 <= 0
SellVsSOC_2022_01_01_13:00:00_01:00: - battery_soc_2022_01_01_13:00:00_01:00
 + 1.07832773203 net_sell_2022_01_01_13:00:00_01:00 <= 0
SellVsSOC_2022_01_01_14:00:00_01:00: - battery_soc_2022_01_01_14:00:00_01:00
 + 1.07832773203 net_sell_2022_01_01_14:00:00_01:00 <= 0
SellVsSOC_2022_01_01_15:00:00_01:00: - battery_soc_2022_01_01_15:00:00_01:00
 + 1.07832773203 net_sell_2022_01_01_15:00:00_01:00 <= 0
WLower_2022_01_01_00:00:00_01:00: 100 charge_sign_2022_01_01_00:00:00_01:00
 - net_sell_2022_01_01_00:00:00_01:00 + w_2022_01_01_00:00:00_01:00 >= 0
WLower_2022_01_01_01:00:00_01:00: 100 charge_sign_2022_01_01_01:00:00_01:00
 - net_sell_2022_01_01_01:00:00_01:00 + w_2022_01_01_01:00:00_01:00 >= 0
WLower_2022_01_01_02:00:00_01:00: 100 charge_sign_2022_01_01_02:00:00_01:00
 - net_sell_2022_01_01_02:00:00_01:00 + w_2022_01_01_02:00:00_01:00 >= 0
WLower_2022_01_01_03:00:00_01:00: 100 charge_sign_2022_01_01_03:00:00_01:00
 - net_sell_2022_01_01_03:00:00_01:00 + w_2022_01_01_03:00:00_01:00 >= 0
WLower_2022_01_01_04:00:00_01:00: 100 charge_sign_2022_01_01_04:00:00_01:00
 - net_sell_2022_01_01_04:00:00_01:00 + w_2022_01_01_04:00:00_01:00 >= 0
WLower_2022_01_01_05:00:00_01:00: 100 charge_sign_2022_01_01_05:00:00_01:00
 - net_sell_2022_01_01_05:00:00_01:00 + w_2022_01_01_05:00:00_01:00 >= 0
WLower_2022_01_01_06:00:00_01:00: 100 charge_sign_2022_01_01_06:00:00_01:00
 - net_sell_2022_01_01_06:00:00_01:00 + w_2022_01_01_06:00:00_01:00 >= 0
WLower_2022_01_01_07:00:00_01:00: 100 charge_sign_2022_01_01_07:00:00_01:00
 - net_sell_2022_01_01_07:00:00_01:00 + w_2022_01_01_07:00:00_01:00 >= 0
WLower_2022_01_01_08:00:00_01:00: 100 charge_sign_2022_01_01_08:00:00_01:00
 - net_sell_2022_01_01_08:00:00_01:00 + w_2022_01_01_08:00:00_01:00 >= 0
WLower_2022_01_01_09:00:00_01:00: 100 charge_sign_2022_01_01_09:00:00_01:00
 - net_sell_2022_01_01_09:00:00_01:00 + w_2022_01_01_09:00:00_01:00 >= 0
WLower_2022_01_01_10:00:00_01:00: 100 charge_sign_2022_01_01_10:00:00_01:00
 - net_sell_2022_01_01_10:00:00_01:00 + w_2022_01_01_10:00:00_01:00 >= 0
WLower_2022_01_01_11:00:00_01:00: 100 charge_sign_2022_01_01_11:00:00_01:00
 - net_sell_2022_01_01_11:00:00_01:00 + w_2022_01_01_11:00:00_01:00 >= 0
WLower_2022_01_01_12:00:00_01:00: 100 charge_sign_2022_01_01_12:00:00_01:00
 - net_sell_2022_01_01_12:00:00_01:00 + w_2022_01_01_12:00:00_01:00 >= 0
WLower_2022_01_01_13:00:00_01:00: 100 charge_sign_2022_01_01_13:00:00_01:00
 - net_sell_2022_01_01_13:00:00_01:00 + w_2022_01_01_13:00:00_01:00 >= 0
WLower_2022_01_01_14:00:00_01:00: 100 charge_sign_2022_01_01_14:00:00_01:00
 - net_sell_2022_01_01_14:00:00_01:00 + w_2022_01_01_14:00:00_01:00 >= 0
WLower_2022_01_01_15:00:00_01:00: 100 charge_sign_2022_01_01_15:00:00_01:00
 - net_sell_2022_01_01_15:00:00_01:00 + w_2022_01_01_15:00:00_01:00 >= 0
WLower_2022_01_01_16:00:00_01:00: 100 charge_sign_2022_01_01_16:00:00_01:00
 - net_sell_2022_01_01_16:00:00_01:00 + w_2022_01_01_16:00:00_01:00 >= 0
WLower_2022_01_01_17:00:00_01:00: 100 charge_sign_2022_01_01_17:00:00_01:00
 - net_sell_2022_01_01_17:00:00_01:00 + w_2022_01_01_17:00:00_01:00 >= 0
WLower_2022_01_01_18:00:00_01:00: 100 charge_sign_2022_01_01_18:00:00_01:00
 - net_sell_2022_01_01_18:00:00_01:00 + w_2022_01_01_18:00:00_01:00 >= 0
WLower_2022_01_01_19:00:00_01:00: 100 charge_sign_2022_01_01_19:00:00_01:00
 - net_sell_2022_01_01_19:00:00_01:00 + w_2022_01_01_19:00:00_01:00 >= 0
WLower_2022_01_01_20:00:00_01:00: 100 charge_sign_2022_01_01_20:00:00_01:00
 - net_sell_2022_01_01_20:00:00_01:00 + w_2022_01_01_20:00:00_01:00 >= 0
WLower_2022_01_01_21:00:00_01:00: 100 charge_sign_2022_01_01_21:00:00_01:00
 - net_sell_2022_01_01_21:00:00_01:00 + w_2022_01_01_21:00:00_01:00 >= 0
WLower_2022_01_01_22:00:00_01:00: 100 charge_sign_2022_01_01_22:00:00_01:00
 - net_sell_2022_01_01_22:00:00_01:00 + w_2022_01_01_22:00:00_01:00 >= 0
WLower_2022_01_01_23:00:00_01:00: 100 charge_sign_2022_01_01_23:00:00_01:00
 - net_sell_2022_01_01_23:00:00_01:00 + w_2022_01_01_23:00:00_01:00 >= 0
WNetSell_2022_01_01_00:00:00_01:00: - net_sell_2022_01_01_00:00:00_01:00
 + w_2022_01_01_00:00:00_01:00 <= 0
WNetSell_2022_01_01_01:00:00_01:00: - net_sell_2022_01_01_01:00:00_01:00
 + w_2022_01_01_01:00:00_01:00 <= 0
WNetSell_2022_01_01_02:00:00_01:00: - net_sell_2022_01_01_02:00:00_01:00
 + w_2022_01_01_02:00:00_01:00 <= 0
WNetSell_2022_01_01_03:00:00_01:00: - net_sell_2022_01_01_03:00:00_01:00
 + w_2022_01_01_03:00:00_01:00 <= 0
WNetSell_2022_01_01_04:00:00_01:00: - net_sell_2022_01_01_04:00:00_01:00
 + w_2022_01_01_04:00:00_01:00 <= 0
WNetSell_2022_01_01_05:00:00_01:00: - net_sell_2022_01_01_05:00:00_01:00
 + w_2022_01_01_05:00:00_01:00 <= 0
WNetSell_2022_01_01_06:00:00_01:00: - net_sell_2022_01_01_06:00:00_01:00
 + w_2022_01_01_06:00:00_01:00 <= 0
WNetSell_2022_01_01_07:00:00_01:00: - net_sell_2022_01_01_07:00:00_01:00
 + w_2022_01_01_07:00:00_01:00 <= 0
WNetSell_2022_01_01_08:00:00_01:00: - net_sell_2022_01_01_08:00:00_01:00
 + w_2022_01_01_08:00:00_01:00 <= 0
WNetSell_2022_01_01_09:00:00_01:00: - net_sell_2022_01_01_09:00:00_01:00
 + w_2022_01_01_09:00:00_01:00 <= 0
WNetSell_2022_01_01_10:00:00_01:00: - net_sell_2022_01_01_10:00:00_01:00
 + w_2022_01_01_10:00:00_01:00 <= 0
WNetSell_2022_01_01_11:00:00_01:00: - net_sell_2022_01_01_11:00:00_01:00
 + w_2022_01_01_11:00:00_01:00 <= 0
WNetSell_2022_01_01_12:00:00_01:00: - net_sell_2022_01_01_12:00:00_01:00
 + w_2022_01_01_12:00:00_01:00 <= 0
WNetSell_2022_01_01_13:00:00_01:00: - net_sell_2022_01_01_13:00:00_01:00
 + w_2022_01_01_13:00:00_01:00 <= 0
WNetSell_2022_01_01_14:00:00_01:00: - net_sell_2022_01_01_14:00:00_01:00
 + w_2022_01_01_14:00:00_01:00 <= 0
WNetSell_2022_01_01_15:00:00_01:00: - net_sell_2022_01_01_15:00:00_01:00
 + w_2022_01_01_15:00:00_01:00 <= 0
WNetSell_2022_01_01_16:00:00_01:00: - net_sell_2022_01_01_16:00:00_01:00
 + w_2022_01_01_16:00:00_01:00 <= 0
WNetSell_2022_01_01_17:00:00_01:00: - net_sell_2022_01_01_17:00:00_01:00
 + w_2022_01_01_17:00:00_01:00 <= 0
WNetSell_2022_01_01_18:00:00_01:00: - net_sell_2022_01_01_18:00:00_01:00
 + w_2022_01_01_18:00:00_01:00 <= 0
WNetSell_2022_01_01_19:00:00_01:00: - net_sell_2022_01_01_19:00:00_01:00
 + w_2022_01_01_19:00:00_01:00 <= 0
WNetSell_2022_01_01_20:00:00_01:00: - net_sell_2022_01_01_20:00:00_01:00
 + w_2022_01_01_20:00:00_01:00 <= 0
WNetSell_2022_01_01_21:00:00_01:00: - net_sell_2022_01_01_21:00:00_01:00
 + w_2022_01_01_21:00:00_01:00 <= 0
WNetSell_2022_01_01_22:00:00_01:00: - net_sell_2022_01_01_22:00:00_01:00
 + w_2022_01_01_22:00:00_01:00 <= 0
WNetSell_2022_01_01_23:00:00_01:00: - net_sell_2022_01_01_23:00:00_01:00
 + w_2022_01_01_23:00:00_01:00 <= 0
WNonNeg_2022_01_01_00:00:00_01:00: w_2022_01_01_00:00:00_01:00 >= 0
WNonNeg_2022_01_01_01:00:00_01:00: w_2022_01_01_01:00:00_01:00 >= 0
WNonNeg_2022_01_01_02:00:00_01:00: w_2022_01_01_02:00:00_01:00 >= 0
WNonNeg_2022_01_01_03:00:00_01:00: w_2022_01_01_03:00:00_01:00 >= 0
WNonNeg_2022_01_01_04:00:00_01:00: w_2022_01_01_04:00:00_01:00 >= 0
WNonNeg_2022_01_01_05:00:00_01:00: w_2022_01_01_05:00:00_01:00 >= 0
WNonNeg_2022_01_01_06:00:00_01:00: w_2022_01_01_06:00:00_01:00 >= 0
WNonNeg_2022_01_01_07:00:00_01:00: w_2022_01_01_07:00:00_01:00 >= 0
WNonNeg_2022_01_01_08:00:00_01:00: w_2022_01_01_08:00:00_01:00 >= 0
WNonNeg_2022_01_01_09:00:00_01:00: w_2022_01_01_09:00:00_01:00 >= 0
WNonNeg_2022_01_01_10:00:00_01:00: w_2022_01_01_10:00:00_01:00 >= 0
WNonNeg_2022_01_01_11:00:00_01:00: w_2022_01_01_11:00:00_01:00 >= 0
WNonNeg_2022_01_01_12:00:00_01:00: w_2022_01_01_12:00:00_01:00 >= 0
WNonNeg_2022_01_01_13:00:00_01:00: w_2022_01_01_13:00:00_01:00 >= 0
WNonNeg_2022_01_01_14:00:00_01:00: w_2022_01_01_14:00:00_01:00 >= 0
WNonNeg_2022_01_01_15:00:00_01:00: w_2022_01_01_15:00:00_01:00 >= 0
WNonNeg_2022_01_01_16:00:00_01:00: w_2022_01_01_16:00:00_01:00 >= 0
WNonNeg_2022_01_01_17:00:00_01:00: w_2022_01_01_17:00:00_01:00 >= 0
WNonNeg_2022_01_01_18:00:00_01:00: w_2022_01_01_18:00:00_01:00 >= 0
WNonNeg_2022_01_01_19:00:00_01:00: w_2022_01_01_19:00:00_01:00 >= 0
WNonNeg_2022_01_01_20:00:00_01:00: w_2022_01_01_20:00:00_01:00 >= 0
WNonNeg_2022_01_01_21:00:00_01:00: w_2022_01_01_21:00:00_01:00 >= 0
WNonNeg_2022_01_01_22:00:00_01:00: w_2022_01_01_22:00:00_01:00 >= 0
WNonNeg_2022_01_01_23:00:00_01:00: w_2022_01_01_23:00:00_01:00 >= 0
WUpper_2022_01_01_00:00:00_01:00: 100 charge_sign_2022_01_01_00:00:00_01:00
 + w_2022_01_01_00:00:00_01:00 <= 100
WUpper_2022_01_01_01:00:00_01:00: 100 charge_sign_2022_01_01_01:00:00_01:00
 + w_2022_01_01_01:00:00_01:00 <= 100
WUpper_2022_01_01_02:00:00_01:00: 100 charge_sign_2022_01_01_02:00:00_01:00
 + w_2022_01_01_02:00:00_01:00 <= 100
WUpper_2022_01_01_03:00:00_01:00: 100 charge_sign_2022_01_01_03:00:00_01:00
 + w_2022_01_01_03:00:00_01:00 <= 100
WUpper_2022_01_01_04:00:00_01:00: 100 charge_sign_2022_01_01_04:00:00_01:00
 + w_2022_01_01_04:00:00_01:00 <= 100
WUpper_2022_01_01_05:00:00_01:00: 100 charge_sign_2022_01_01_05:00:00_01:00
 + w_2022_01_01_05:00:00_01:00 <= 100
WUpper_2022_01_01_06:00:00_01:00: 100 charge_sign_2022_01_01_06:00:00_01:00
 + w_2022_01_01_06:00:00_01:00 <= 100
WUpper_2022_01_01_07:00:00_01:00: 100 charge_sign_2022_01_01_07:00:00_01:00
 + w_2022_01_01_07:00:00_01:00 <= 100
WUpper_2022_01_01_08:00:00_01:00: 100 charge_sign_2022_01_01_08:00:00_01:00
 + w_2022_01_01_08:00:00_01:00 <= 100
WUpper_2022_01_01_09:00:00_01:00: 100 charge_sign_2022_01_01_09:00:00_01:00
 + w_2022_01_01_09:00:00_01:00 <= 100
WUpper_2022_01_01_10:00:00_01:00: 100 charge_sign_2022_01_01_10:00:00_01:00
 + w_2022_01_01_10:00:00_01:00 <= 100
WUpper_2022_01_01_11:00:00_01:00: 100 charge_sign_2022_01_01_11:00:00_01:00
 + w_2022_01_01_11:00:00_01:00 <= 100
WUpper_2022_01_01_12:00:00_01:00: 100 charge_sign_2022_01_01_12:00:00_01:00
 + w_2022_01_01_12:00:00_01:00 <= 100
WUpper_2022_01_01_13:00:00_01:00: 100 charge_sign_2022_01_01_13:00:00_01:00
 + w_2022_01_01_13:00:00_01:00 <= 100
WUpper_2022_01_01_14:00:00_01:00: 100 charge_sign_2022_01_01_14:00:00_01:00
 + w_2022_01_01_14:00:00_01:00 <= 100
WUpper_2022_01_01_15:00:00_01:00: 100 charge_sign_2022_01_01_15:00:00_01:00
 + w_2022_01_01_15:00:00_01:00 <= 100
WUpper_2022_01_01_16:00:00_01:00: 100 charge_sign_2022_01_01_16:00:00_01:00
 + w_2022_01_01_16:00:00_01:00 <= 100
WUpper_2022_01_01_17:00:00_01:00: 100 charge_sign_2022_01_01_17:00:00_01:00
 + w_2022_01_01_17:00:00_01:00 <= 100
WUpper_2022_01_01_18:00:00_01:00: 100 charge_sign_2022_01_01_18:00:00_01:00
 + w_2022_01_01_18:00:00_01:00 <= 100
WUpper_2022_01_01_19:00:00_01:00: 100 charge_sign_2022_01_01_19:00:00_01:00
 + w_2022_01_01_19:00:00_01:00 <= 100
WUpper_2022_01_01_20:00:00_01:00: 100 charge_sign_2022_01_01_20:00:00_01:00
 + w_2022_01_01_20:00:00_01:00 <= 100
WUpper_2022_01_01_21:00:00_01:00: 100 charge_sign_2022_01_01_21:00:00_01:00
 + w_2022_01_01_21:00:00_01:00 <= 100
WUpper_2022_01_01_22:00:00_01:00: 100 charge_sign_2022_01_01_22:00:00_01:00
 + w_2022_01_01_22:00:00_01:00 <= 100
WUpper_2022_01_01_23:00:00_01:00: 100 charge_sign_2022_01_01_23:00:00_01:00
 + w_2022_01_01_23:00:00_01:00 <= 100
ZLower_2022_01_01_00:00:00_01:00: - 100 charge_sign_2022_01_01_00:00:00_01:00
 - net_buy_2022_01_01_00:00:00_01:00 + z_2022_01_01_00:00:00_01:00 >= -100
ZLower_2022_01_01_01:00:00_01:00: - 100 charge_sign_2022_01_01_01:00:00_01:00
 - net_buy_2022_01_01_01:00:00_01:00 + z_2022_01_01_01:00:00_01:00 >= -100
ZLower_2022_01_01_02:00:00_01:00: - 100 charge_sign_2022_01_01_02:00:00_01:00
 - net_buy_2022_01_01_02:00:00_01:00 + z_2022_01_01_02:00:00_01:00 >= -100
ZLower_2022_01_01_03:00:00_01:00: - 100 charge_sign_2022_01_01_03:00:00_01:00
 - net_buy_2022_01_01_03:00:00_01:00 + z_2022_01_01_03:00:00_01:00 >= -100
ZLower_2022_01_01_04:00:00_01:00: - 100 charge_sign_2022_01_01_04:00:00_01:00
 - net_buy_2022_01_01_04:00:00_01:00 + z_2022_01_01_04:00:00_01:00 >= -100
ZLower_2022_01_01_05:00:00_01:00: - 100 charge_sign_2022_01_01_05:00:00_01:00
 - net_buy_2022_01_01_05:00:00_01:00 + z_2022_01_01_05:00:00_01:00 >= -100
ZLower_2022_01_01_06:00:00_01:00: - 100 charge_sign_2022_01_01_06:00:00_01:00
 - net_buy_2022_01_01_06:00:00_01:00 + z_2022_01_01_06:00:00_01:00 >= -100
ZLower_2022_01_01_07:00:00_01:00: - 100 charge_sign_2022_01_01_07:00:00_01:00
 - net_buy_2022_01_01_07:00:00_01:00 + z_2022_01_01_07:00:00_01:00 >= -100
ZLower_2022_01_01_08:00:00_01:00: - 100 charge_sign_2022_01_01_08:00:00_01:00
 - net_buy_2022_01_01_08:00:00_01:00 + z_2022_01_01_08:00:00_01:00 >= -100
ZLower_2022_01_01_09:00:00_01:00: - 100 charge_sign_2022_01_01_09:00:00_01:00
 - net_buy_2022_01_01_09:00:00_01:00 + z_2022_01_01_09:00:00_01:00 >= -100
ZLower_2022_01_01_10:00:00_01:00: - 100 charge_sign_2022_01_01_10:00:00_01:00
 - net_buy_2022_01_01_10:00:00_01:00 + z_2022_01_01_10:00:00_01:00 >= -100
ZLower_2022_01_01_11:00:00_01:00: - 100 charge_sign_2022_01_01_11:00:00_01:00
 - net_buy_2022_01_01_11:00:00_01:00 + z_2022_01_01_11:00:00_01:00 >= -100
ZLower_2022_01_01_12:00:00_01:00: - 100 charge_sign_2022_01_01_12:00:00_01:00
 - net_buy_2022_01_01_12:00:00_01:00 + z_2022_01_01_12:00:00_01:00 >= -100
ZLower_2022_01_01_13:00:00_01:00: - 100 charge_sign_2022_01_01_13:00:00_01:00
 - net_buy_2022_01_01_13:00:00_01:00 + z_2022_01_01_13:00:00_01:00 >= -100
ZLower_2022_01_01_14:00:00_01:00: - 100 charge_sign_2022_01_01_14:00:00_01:00
 - net_buy_2022_01_01_14:00:00_01:00 + z_2022_01_01_14:00:00_01:00 >= -100
ZLower_2022_01_01_15:00:00_01:00: - 100 charge_sign_2022_01_01_15:00:00_01:00
 - net_buy_2022_01_01_15:00:00_01:00 + z_2022_01_01_15:00:00_01:00 >= -100
ZLower_2022_01_01_16:00:00_01:00: - 100 charge_sign_2022_01_01_16:00:00_01:00
 - net_buy_2022_01_01_16:00:00_01:00 + z_2022_01_01_16:00:00_01:00 >= -100
ZLower_2022_01_01_17:00:00_01:00: - 100 charge_sign_2022_01_01_17:00:00_01:00
 - net_buy_2022_01_01_17:00:00_01:00 + z_2022_01_01_17:00:00_01:00 >= -100
ZLower_2022_01_01_18:00:00_01:00: - 100 charge_sign_2022_01_01_18:00:00_01:00
 - net_buy_2022_01_01_18:00:00_01:00 + z_2022_01_01_18:00:00_01:00 >= -100
ZLower_2022_01_01_19:00:00_01:00: - 100 charge_sign_2022_01_01_19:00:00_01:00
 - net_buy_2022_01_01_19:00:00_01:00 + z_2022_01_01_19:00:00_01:00 >= -100
ZLower_2022_01_01_20:00:00_01:00: - 100 charge_sign_2022_01_01_20:00:00_01:00
 - net_buy_2022_01_01_20:00:00_01:00 + z_2022_01_01_20:00:00_01:00 >= -100
ZLower_2022_01_01_21:00:00_01:00: - 100 charge_sign_2022_01_01_21:00:00_01:00
 - net_buy_2022_01_01_21:00:00_01:00 + z_2022_01_01_21:00:00_01:00 >= -100
ZLower_2022_01_01_22:00:00_01:00: - 100 charge_sign_2022_01_01_22:00:00_01:00
 - net_buy_2022_01_01_22:00:00_01:00 + z_2022_01_01_22:00:00_01:00 >= -100
ZLower_2022_01_01_23:00:00_01:00: - 100 charge_sign_2022_01_01_23:00:00_01:00
 - net_buy_2022_01_01_23:00:00_01:00 + z_2022_01_01_23:00:00_01:00 >= -100
ZNetBuy_2022_01_01_00:00:00_01:00: - net_buy_2022_01_01_00:00:00_01:00
 + z_2022_01_01_00:00:00_01:00 <= 0
ZNetBuy_2022_01_01_01:00:00_01:00: - net_buy_2022_01_01_01:00:00_01:00
 + z_2022_01_01_01:00:00_01:00 <= 0
ZNetBuy_2022_01_01_02:00:00_01:00: - net_buy_2022_01_01_02:00:00_01:00
 + z_2022_01_01_02:00:00_01:00 <= 0
ZNetBuy_2022_01_01_03:00:00_01:00: - net_buy_2022_01_01_03:00:00_01:00
 + z_2022_01_01_03:00:00_01:00 <= 0
ZNetBuy_2022_01_01_04:00:00_01:00: - net_buy_2022_01_01_04:00:00_01:00
 + z_2022_01_01_04:00:00_01:00 <= 0
ZNetBuy_2022_01_01_05:00:00_01:00: - net_buy_2022_01_01_05:00:00_01:00
 + z_2022_01_01_05:00:00_01:00 <= 0
ZNetBuy_2022_01_01_06:00:00_01:00: - net_buy_2022_01_01_06:00:00_01:00
 + z_2022_01_01_06:00:00_01:00 <= 0
ZNetBuy_2022_01_01_07:00:00_01:00: - net_buy_2022_01_01_07:00:00_01:00
 + z_2022_01_01_07:00:00_01:00 <= 0
ZNetBuy_2022_01_01_08:00:00_01:00: - net_buy_2022_01_01_08:00:00_01:00
 + z_2022_01_01_08:00:00_01:00 <= 0
ZNetBuy_2022_01_01_09:00:00_01:00: - net_buy_2022_01_01_09:00:00_01:00
 + z_2022_01_01_09:00:00_01:00 <= 0
ZNetBuy_2022_01_01_10:00:00_01:00: - net_buy_2022_01_01_10:00:00_01:00
 + z_2022_01_01_10:00:00_01:00 <= 0
ZNetBuy_2022_01_01_11:00:00_01:00: - net_buy_2022_01_01_11:00:00_01:00
 + z_2022_01_01_11:00:00_01:00 <= 0
ZNetBuy_2022_01_01_12:00:00_01:00: - net_buy_2022_01_01_12:00:00_01:00
 + z_2022_01_01_12:00:00_01:00 <= 0
ZNetBuy_2022_01_01_13:00:00_01:00: - net_buy_2022_01_01_13:00:00_01:00
 + z_2022_01_01_13:00:00_01:00 <= 0
ZNetBuy_2022_01_01_14:00:00_01:00: - net_buy_2022_01_01_14:00:00_01:00
 + z_2022_01_01_14:00:00_01:00 <= 0
ZNetBuy_2022_01_01_15:00:00_01:00: - net_buy_2022_01_01_15:00:00_01:00
 + z_2022_01_01_15:00:00_01:00 <= 0
ZNetBuy_2022_01_01_16:00:00_01:00: - net_buy_2022_01_01_16:00:00_01:00
 + z_2022_01_01_16:00:00_01:00 <= 0
ZNetBuy_2022_01_01_17:00:00_01:00: - net_buy_2022_01_01_17:00:00_01:00
 + z_2022_01_01_17:00:00_01:00 <= 0
ZNetBuy_2022_01_01_18:00:00_01:00: - net_buy_2022_01_01_18:00:00_01:00
 + z_2022_01_01_18:00:00_01:00 <= 0
ZNetBuy_2022_01_01_19:00:00_01:00: - net_buy_2022_01_01_19:00:00_01:00
 + z_2022_01_01_19:00:00_01:00 <= 0
ZNetBuy_2022_01_01_20:00:00_01:00: - net_buy_2022_01_01_20:00:00_01:00
 + z_2022_01_01_20:00:00_01:00 <= 0
ZNetBuy_2022_01_01_21:00:00_01:00: - net_buy_2022_01_01_21:00:00_01:00
 + z_2022_01_01_21:00:00_01:00 <= 0
ZNetBuy_2022_01_01_22:00:00_01:00: - net_buy_2022_01_01_22:00:00_01:00
 + z_2022_01_01_22:00:00_01:00 <= 0
ZNetBuy_2022_01_01_23:00:00_01:00: - net_buy_2022_01_01_23:00:00_01:00
 + z_2022_01_01_23:00:00_01:00 <= 0
ZNonNeg_2022_01_01_00:00:00_01:00: z_2022_01_01_00:00:00_01:00 >= 0
ZNonNeg_2022_01_01_01:00:00_01:00: z_2022_01_01_01:00:00_01:00 >= 0
ZNonNeg_2022_01_01_02:00:00_01:00: z_2022_01_01_02:00:00_01:00 >= 0
ZNonNeg_2022_01_01_03:00:00_01:00: z_2022_01_01_03:00:00_01:00 >= 0
ZNonNeg_2022_01_01_04:00:00_01:00: z_2022_01_01_04:00:00_01:00 >= 0
ZNonNeg_2022_01_01_05:00:00_01:00: z_2022_01_01_05:00:00_01:00 >= 0
ZNonNeg_2022_01_01_06:00:00_01:00: z_2022_01_01_06:00:00_01:00 >= 0
ZNonNeg_2022_01_01_07:00:00_01:00: z_2022_01_01_07:00:00_01:00 >= 0
ZNonNeg_2022_01_01_08:00:00_01:00: z_2022_01_01_08:00:00_01:00 >= 0
ZNonNeg_2022_01_01_09:00:00_01:00: z_2022_01_01_09:00:00_01:00 >= 0
ZNonNeg_2022_01_01_10:00:00_01:00: z_2022_01_01_10:00:00_01:00 >= 0
ZNonNeg_2022_01_01_11:00:00_01:00: z_2022_01_01_11:00:00_01:00 >= 0
ZNonNeg_2022_01_01_12:00:00_01:00: z_2022_01_01_12:00:00_01:00 >= 0
ZNonNeg_2022_01_01_13:00:00_01:00: z_2022_01_01_13:00:00_01:00 >= 0
ZNonNeg_2022_01_01_14:00:00_01:00: z_2022_01_01_14:00:00_01:00 >= 0
ZNonNeg_2022_01_01_15:00:00_01:00: z_2022_01_01_15:00:00_01:00 >= 0
ZNonNeg_2022_01_01_16:00:00_01:00: z_2022_01_01_16:00:00_01:00 >= 0
ZNonNeg_2022_01_01_17:00:00_01:00: z_2022_01_01_17:00:00_01:00 >= 0
ZNonNeg_2022_01_01_18:00:00_01:00: z_2022_01_01_18:00:00_01:00 >= 0
ZNonNeg_2022_01_01_19:00:00_01:00: z_2022_01_01_19:00:00_01:00 >= 0
ZNonNeg_2022_01_01_20:00:00_01:00: z_2022_01_01_20:00:00_01:00 >= 0
ZNonNeg_2022_01_01_21:00:00_01:00: z_2022_01_01_21:00:00_01:00 >= 0
ZNonNeg_2022_01_01_22:00:00_01:00: z_2022_01_01_22:00:00_01:00 >= 0
ZNonNeg_2022_01_01_23:00:00_01:00: z_2022_01_01_23:00:00_01:00 >= 0
ZUpper_2022_01_01_00:00:00_01:00: - 100 charge_sign_2022_01_01_00:00:00_01:00
 + z_2022_01_01_00:00:00_01:00 <= 0
ZUpper_2022_01_01_01:00:00_01:00: - 100 charge_sign_2022_01_01_01:00:00_01:00
 + z_2022_01_01_01:00:00_01:00 <= 0
ZUpper_2022_01_01_02:00:00_01:00: - 100 charge_sign_2022_01_01_02:00:00_01:00
 + z_2022_01_01_02:00:00_01:00 <= 0
ZUpper_2022_01_01_03:00:00_01:00: - 100 charge_sign_2022_01_01_03:00:00_01:00
 + z_2022_01_01_03:00:00_01:00 <= 0
ZUpper_2022_01_01_04:00:00_01:00: - 100 charge_sign_2022_01_01_04:00:00_01:00
 + z_2022_01_01_04:00:00_01:00 <= 0
ZUpper_2022_01_01_05:00:00_01:00: - 100 charge_sign_2022_01_01_05:00:00_01:00
 + z_2022_01_01_05:00:00_01:00 <= 0
ZUpper_2022_01_01_06:00:00_01:00: - 100 charge_sign_2022_01_01_06:00:00_01:00
 + z_2022_01_01_06:00:00_01:00 <= 0
ZUpper_2022_01_01_07:00:00_01:00: - 100 charge_sign_2022_01_01_07:00:00_01:00
 + z_2022_01_01_07:00:00_01:00 <= 0
ZUpper_2022_01_01_08:00:00_01:00: - 100 charge_sign_2022_01_01_08:00:00_01:00
 + z_2022_01_01_08:00:00_01:00 <= 0
ZUpper_2022_01_01_09:00:00_01:00: - 100 charge_sign_2022_01_01_09:00:00_01:00
 + z_2022_01_01_09:00:00_01:00 <= 0
ZUpper_2022_01_01_10:00:00_01:00: - 100 charge_sign_2022_01_01_10:00:00_01:00
 + z_2022_01_01_10:00:00_01:00 <= 0
ZUpper_2022_01_01_11:00:00_01:00: - 100 charge_sign_2022_01_01_11:00:00_01:00
 + z_2022_01_01_11:00:00_01:00 <= 0
ZUpper_2022_01_01_12:00:00_01:00: - 100 charge_sign_2022_01_01_12:00:00_01:00
 + z_2022_01_01_12:00:00_01:00 <= 0
ZUpper_2022_01_01_13:00:00_01:00: - 100 charge_sign_2022_01_01_13:00:00_01:00
 + z_2022_01_01_13:00:00_01:00 <= 0
ZUpper_2022_01_01_14:00:00_01:00: - 100 charge_sign_2022_01_01_14:00:00_01:00
 + z_2022_01_01_14:00:00_01:00 <= 0
ZUpper_2022_01_01_15:00:00_01:00: - 100 charge_sign_2022_01_01_15:00:00_01:00
 + z_2022_01_01_15:00:00_01:00 <= 0
ZUpper_2022_01_01_16:00:00_01:00: - 100 charge_sign_2022_01_01_16:00:00_01:00
 + z_2022_01_01_16:00:00_01:00 <= 0
ZUpper_2022_01_01_17:00:00_01:00: - 100 charge_sign_2022_01_01_17:00:00_01:00
 + z_2022_01_01_17:00:00_01:00 <= 0
ZUpper_2022_01_01_18:00:00_01:00: - 100 charge_sign_2022_01_01_18:00:00_01:00
 + z_2022_01_01_18:00:00_01:00 <= 0
ZUpper_2022_01_01_19:00:00_01:00: - 100 charge_sign_2022_01_01_19:00:00_01:00
 + z_2022_01_01_19:00:00_01:00 <= 0
ZUpper_2022_01_01_20:00:00_01:00: - 100 charge_sign_2022_01_01_20:00:00_01:00
 + z_2022_01_01_20:00:00_01:00 <= 0
ZUpper_2022_01_01_21:00:00_01:00: - 100 charge_sign_2022_01_01_21:00:00_01:00
 + z_2022_01_01_21:00:00_01:00 <= 0
ZUpper_2022_01_01_22:00:00_01:00: - 100 charge_sign_2022_01_01_22:00:00_01:00
 + z_2022_01_01_22:00:00_01:00 <= 0
ZUpper_2022_01_01_23:00:00_01:00: - 100 charge_sign_2022_01_01_23:00:00_01:00
 + z_2022_01_01_23:00:00_01:00 <= 0
Binaries
charge_sign_2022_01_01_00:00:00_01:00
charge_sign_2022_01_01_01:00:00_01:00
charge_sign_2022_01_01_02:00:00_01:00
charge_sign_2022_01_01_03:00:00_01:00
charge_sign_2022_01_01_04:00:00_01:00
charge_sign_2022_01_01_05:00:00_01:00
charge_sign_2022_01_01_06:00:00_01:00
charge_sign_2022_01_01_07:00:00_01:00
charge_sign_2022_01_01_08:00:00_01:00
charge_sign_2022_01_01_09:00:00_01:00
charge_sign_2022_01_01_10:00:00_01:00
charge_sign_2022_01_01_11:00:00_01:00
charge_sign_2022_01_01_12:00:00_01:00
charge_sign_2022_01_01_13:00:00_01:00
charge_sign_2022_01_01_14:00:00_01:00
charge_sign_2022_01_01_15:00:00_01:00
charge_sign_2022_01_01_16:00:00_01:00
charge_sign_2022_01_01_17:00:00_01:00
charge_sign_2022_01_01_18:00:00_01:00
charge_sign_2022_01_01_19:00:00_01:00
charge_sign_2022_01_01_20:00:00_01:00
charge_sign_2022_01_01_21:00:00_01:00
charge_sign_2022_01_01_22:00:00_01:00
charge_sign_2022_01_01_23:00:00_01:00
End
